n = 100;
C = 454;
w = [451,713,663,887,402,887,978,636,69,62,608,809,189,433,185,994,895,36,279,231,796,547,941,356,465,332,896,129,551,808,436,394,460,391,34,704,48,273,810,902,105,101,726,173,400,573,167,353,194,752,94,633,639,711,52,67,254,41,210,693,48,456,402,237,344,25,587,195,482,904,18,257,680,289,652,986,774,344,284,424,968,41,459,572,758,585,643,659,191,908,403,659,899,53,79,905,552,97,5,30];
p = [381,921,44,810,717,94,906,754,262,692,87,544,972,276,937,798,473,212,868,957,441,422,620,711,692,103,175,605,511,137,977,730,786,842,805,679,228,426,963,501,835,777,725,550,932,567,25,324,369,537,634,648,742,195,967,332,19,48,986,545,494,876,201,739,62,243,1,600,64,495,302,12,830,6,77,432,707,825,35,430,728,886,266,639,370,79,51,182,410,882,527,42,107,623,924,455,256,844,663,397];
